c ---- [ banner ] ------------------------------------------------------------
c
c Kissat SAT Solver
c 
c Copyright (c) 2021-2024 Armin Biere University of Freiburg
c Copyright (c) 2019-2021 Armin Biere Johannes Kepler University Linz
c 
c Version 4.0.1 43f02cf3e992cb44653b35e5cb26f93281552ae0
c gcc (Ubuntu 13.2.0-23ubuntu4) 13.2.0 -W -Wall -O3 -DNDEBUG
c Thu Sep 12 12:27:46 CEST 2024 Linux abryzen9 6.8.0-41-generic x86_64
c
c ---- [ parsing ] -----------------------------------------------------------
c
c opened and reading DIMACS file:
c
c   /data/artifact/AMulet2.0_artifact/exp4/cnf_sopb_64/64_64_U_SP_CWT_LF_GenMul_sopb.cnf
c
c parsed 'p cnf 33314 139909' header
c closing input after reading 2774108 bytes (3 MB)
c finished parsing after 0.02 seconds
c
c ---- [ options ] -----------------------------------------------------------
c
c --stable=0                       (different from default '1')
c
c ---- [ solving ] -----------------------------------------------------------
c
c  seconds switched rate     size/glue tier1  binary           remaining
c         MB reductions conflicts size  tier2     irredundant
c          level restarts redundant glue  trail           variables
c
c *  0.02 10 0 0 0  0 0   0   0 0.0 0 0 0 0 0% 29409 110498 33311 100%
c (  0.04 12 0 0 0  0 0   0   0 0.0 0 0 0 0 0% 29409 110498 33311 100%
c .  0.05 13 0 0 0  0 0   0   0 0.0 0 0 0 0 0% 29405 110498 33311 100%
c c  0.16 18 0 0 0  0 0   0   0 0.0 0 0 0 0 0% 33794 103658 31122 93%
c d  0.17 19 0 0 0  0 0   0   0 0.0 0 0 0 0 0% 29416 103658 31122 93%
c =  0.24 19 0 0 0  0 0   0   0 0.0 0 0 0 0 0% 29402 103658 30493 92%
c d  0.25 19 0 0 0  0 0   0   0 0.0 0 0 0 0 0% 28144 103658 30493 92%
c f  0.41 19 0 0 0  0 0   0   0 0.0 0 0 0 0 0% 29643 99452 32393 97%
c e  0.63 25 0 0 0  0 0   0   0 0.0 0 0 0 0 0% 21900 104812 23612 71%
c )  0.63 25 0 0 0  0 0   0   0 0.0 0 0 0 0 0% 21900 104812 23612 71%
c {  0.65 25 0 0 0  0 0   0   0 0.0 0 0 2 6 0% 21900 104812 23612 71%
c -  0.85 25 147 0 1 253 31 1000 707 2.9 13 4 3 10 19% 22021 104801 23612 71%
c -  1.10 25 245 0 2 410 36 2000 1416 3.3 15 5 3 9 23% 22073 104793 23612 71%
c c  1.28 23 361 0 2 451 38 2506 1822 3.3 15 4 3 9 23% 22768 103419 23156 70%
c d  1.29 23 361 0 2 451 38 2506 1807 3.3 15 4 3 9 23% 21856 103419 23156 70%
c u  1.32 23 361 0 2 451 38 2506 1288 3.3 15 4 3 9 23% 20067 103419 23156 70%
c v  1.34 23 361 0 2 451 38 2506 1180 3.3 15 4 3 9 23% 20067 103419 23156 70%
c w  1.36 23 361 0 2 451 38 2506 1180 3.3 15 4 3 9 23% 20067 103419 23156 70%
c x  1.38 23 361 0 2 451 38 2506 1180 3.3 15 4 3 9 23% 20160 103137 23156 70%
c =  1.45 23 361 0 2 451 38 2506 1180 3.3 15 4 3 9 23% 20182 103137 23145 69%
c
c  seconds   switched   rate       size/glue tier1    binary           remaining
c         MB  reductions conflicts       size  tier2      irredundant
c           level restarts    redundant    glue   trail           variables
c
c d  1.46 23 361 0 2 451 38 2506 1180 3.3 15 4 3 9 23% 20159 103137 23145 69%
c t  1.47 23 361 0 2 451 38 2506 1180 3.3 15 4 3 9 23% 20154 103137 23145 69%
c f  1.50 23 361 0 2 451 38 2506 1180 3.3 15 4 3 9 23% 21302 100749 23894 72%
c u  1.61 23 361 0 2 451 38 2506 1115 3.3 15 4 3 9 23% 21307 100749 23894 72%
c v  1.63 23 361 0 2 451 38 2506 1028 3.3 15 4 3 9 23% 21307 100749 23894 72%
c w  1.66 23 361 0 2 451 38 2506 1027 3.3 15 4 3 9 23% 21307 100749 23894 72%
c x  1.68 23 361 0 2 451 38 2506 1027 3.3 15 4 3 9 23% 21307 100737 23894 72%
c =  1.76 23 361 0 2 451 38 2506 1027 3.3 15 4 3 9 23% 21351 100737 23872 72%
c d  1.77 23 361 0 2 451 38 2506 1026 3.3 15 4 3 9 23% 21305 100737 23872 72%
c f  1.82 23 361 0 2 451 38 2506 1026 3.3 15 4 3 9 23% 21779 99832 24192 73%
c -  2.18 23 323 0 3 598 37 3414 1626 3.3 17 5 3 8 24% 21820 99831 24192 73%
c -  2.50 23 344 0 4 889 37 5149 2815 3.1 16 5 3 9 25% 21910 99830 24192 73%
c -  2.84 23 312 0 5 1083 35 7149 4081 2.9 15 5 3 8 26% 21991 99828 24192 73%
c d  3.00 23 303 0 5 1147 35 7713 4549 3.0 15 5 3 8 26% 22000 99828 24185 73%
c u  3.06 23 303 0 5 1147 35 7713 3538 3.0 15 5 3 8 26% 22015 99828 24185 73%
c v  3.09 23 303 0 5 1147 35 7713 3195 3.0 15 5 3 8 26% 22015 99828 24185 73%
c w  3.13 23 303 0 5 1147 35 7713 3188 3.0 15 5 3 8 26% 22015 99828 24185 73%
c =  3.26 24 303 0 5 1147 35 7713 3188 3.0 15 5 3 8 26% 23905 99812 23240 70%
c d  3.27 24 303 0 5 1147 35 7713 3123 3.0 15 5 3 8 26% 21948 99812 23240 70%
c t  3.29 24 303 0 5 1147 35 7713 3123 3.0 15 5 3 8 26% 21865 99812 23240 70%
c
c  seconds   switched    rate       size/glue tier1    binary          remaining
c         MB  reductions  conflicts       size  tier2      irredundant
c           level  restarts    redundant    glue   trail          variables
c
c f  3.33 24 303 0 5 1147 35 7713 3123 3.0 15 5 3 8 26% 22011 99107 23475 70%
c u  3.46 24 303 0 5 1147 35 7713 2898 3.0 15 5 3 8 26% 22013 99107 23475 70%
c v  3.50 24 303 0 5 1147 35 7713 2817 3.0 15 5 3 8 26% 22013 99107 23475 70%
c w  3.55 24 303 0 5 1147 35 7713 2811 3.0 15 5 3 8 26% 22013 99107 23475 70%
c x  3.58 24 303 0 5 1147 35 7713 2811 3.0 15 5 3 8 26% 22015 98614 23475 70%
c =  3.72 24 303 0 5 1147 35 7713 2811 3.0 15 5 3 8 26% 22931 98609 23017 69%
c d  3.73 24 303 0 5 1147 35 7713 2794 3.0 15 5 3 8 26% 21941 98609 23016 69%
c t  3.74 24 303 0 5 1147 35 7713 2794 3.0 15 5 3 8 26% 21880 98609 23016 69%
c f  3.79 24 303 0 5 1147 35 7713 2794 3.0 15 5 3 8 26% 22036 98167 23169 70%
c -  4.12 24 287 0 6 1361 34 9386 3724 3.1 16 5 3 8 26% 22112 98161 23169 70%
c o  4.19 24 283 0 6 1385 32 10083 4228 3.0 16 5 3 8 25% 22165 98156 23169 70%
c -  4.69 24 276 0 7 1583 33 11838 5079 3.2 17 5 3 8 25% 22262 98148 23169 70%
c s  4.77 24 295 0 7 1594 32 12523 5656 3.1 16 5 3 8 25% 22319 89733 23169 70%
c e  4.91 24 295 0 7 1594 32 12523 5656 3.1 16 5 3 8 25% 20384 91353 21648 65%
c 2  4.91 24 295 0 7 1594 32 12523 5656 3.1 16 5 3 8 25% 20381 91353 21648 65%
c s  4.92 24 295 0 7 1594 32 12523 5656 3.1 16 5 3 8 25% 20391 91007 21648 65%
c e  4.94 24 295 0 7 1594 32 12523 5656 3.1 16 5 3 8 25% 20309 91058 21606 65%
c ^  4.94 24 295 0 7 1594 32 12523 5656 3.1 16 5 3 8 25% 20309 91058 21606 65%
c -  5.31 24 285 0 8 1718 30 14483 6233 3.0 16 5 3 7 25% 20385 91054 21606 65%
c d  5.59 24 289 0 8 1828 31 15800 7345 3.0 16 5 3 7 25% 20423 91051 21588 65%
c
c  seconds   switched    rate        size/glue tier1    binary          remaining
c         MB  reductions   conflicts       size  tier2      irredundant
c           level  restarts     redundant    glue   trail          variables
c
c u  5.66 24 289 0 8 1828 31 15800 6135 3.0 16 5 3 7 25% 20431 91051 21588 65%
c v  5.70 24 289 0 8 1828 31 15800 5847 3.0 16 5 3 7 25% 20431 91051 21588 65%
c w  5.74 24 289 0 8 1828 31 15800 5845 3.0 16 5 3 7 25% 20431 91051 21588 65%
c x  5.78 24 289 0 8 1828 31 15800 5845 3.0 16 5 3 7 25% 20434 90927 21588 65%
c =  5.97 24 289 0 8 1828 31 15800 5845 3.0 16 5 3 7 25% 20790 90927 21410 64%
c d  5.98 24 289 0 8 1828 31 15800 5810 3.0 16 5 3 7 25% 20373 90927 21409 64%
c t  6.00 24 289 0 8 1828 31 15800 5810 3.0 16 5 3 7 25% 20332 90927 21409 64%
c f  6.08 24 289 0 8 1828 31 15800 5810 3.0 16 5 3 7 25% 20408 90641 21486 64%
c b  6.11 24 289 0 8 1828 31 15800 5810 3.0 16 5 3 7 25% 20408 90641 21485 64%
c u  6.16 24 289 0 8 1828 31 15800 5158 3.0 16 5 3 7 25% 20425 90641 21485 64%
c v  6.20 24 289 0 8 1828 31 15800 4970 3.0 16 5 3 7 25% 20426 90641 21485 64%
c w  6.25 24 289 0 8 1828 31 15800 4970 3.0 16 5 3 7 25% 20426 90641 21485 64%
c x  6.29 24 289 0 8 1828 31 15800 4968 3.0 16 5 3 7 25% 20469 90411 21485 64%
c =  6.45 24 289 0 8 1828 31 15800 4968 3.0 16 5 3 7 25% 21159 90409 21140 63%
c d  6.46 24 289 0 8 1828 31 15800 4961 3.0 16 5 3 7 25% 20287 90409 21140 63%
c t  6.49 24 289 0 8 1828 31 15800 4961 3.0 16 5 3 7 25% 20255 90409 21140 63%
c f  6.52 24 289 0 8 1828 31 15800 4961 3.0 16 5 3 7 25% 20240 90343 21158 64%
c -  6.80 24 277 0 9 1961 30 17311 5222 3.0 16 5 2 7 25% 20292 90341 21158 64%
c o  7.36 24 265 0 9 2175 29 20087 7689 3.0 16 5 2 7 25% 20379 90340 21158 64%
c -  7.42 24 263 0 10 2209 29 20311 6892 3.0 16 6 2 7 25% 20384 90340 21158 64%
c
c  seconds   switched     rate        size/glue tier1    binary          remaining
c         MB   reductions   conflicts       size  tier2      irredundant
c           level   restarts     redundant    glue   trail          variables
c
c -  8.15 24 252 0 11 2490 28 23473 8465 3.0 16 6 2 7 25% 20474 90338 21158 64%
c s  8.44 24 260 0 11 2589 28 25028 9810 3.0 16 6 2 7 25% 20529 88834 21158 64%
c e  8.60 24 260 0 11 2589 28 25028 9810 3.0 16 6 2 7 25% 17697 92870 19667 59%
c 2  8.60 24 260 0 11 2589 28 25028 9810 3.0 16 6 2 7 25% 17683 92870 19667 59%
c s  8.62 24 260 0 11 2589 28 25028 9810 3.0 16 6 2 7 25% 17744 92096 19667 59%
c e  8.64 24 260 0 11 2589 28 25028 9810 3.0 16 6 2 7 25% 17692 92170 19636 59%
c ^  8.64 24 260 0 11 2589 28 25028 9810 3.0 16 6 2 7 25% 17692 92170 19636 59%
c -  9.03 24 257 0 12 2744 29 26790 9010 3.0 16 6 2 7 26% 17735 92165 19636 59%
c c  9.12 24 260 0 12 2745 28 26930 9129 3.0 16 6 2 7 26% 17764 92098 19623 59%
c d  9.13 24 260 0 12 2745 28 26930 9113 3.0 16 6 2 7 26% 17718 92098 19611 59%
c u  9.19 24 260 0 12 2745 28 26930 7928 3.0 16 6 2 7 26% 17728 92098 19611 59%
c v  9.26 24 260 0 12 2745 28 26930 6912 3.0 16 6 2 7 26% 17729 92098 19611 59%
c w  9.27 24 260 0 12 2745 28 26930 6909 3.0 16 6 2 7 26% 17729 92098 19611 59%
c x  9.33 24 260 0 12 2745 28 26930 6905 3.0 16 6 2 7 26% 17758 91643 19611 59%
c =  9.58 24 260 0 12 2745 28 26930 6905 3.0 16 6 2 7 26% 18846 91640 19067 57%
c d  9.59 24 260 0 12 2745 28 26930 6816 3.0 16 6 2 7 26% 17732 91640 19066 57%
c t  9.61 24 260 0 12 2745 28 26930 6816 3.0 16 6 2 7 26% 17567 91640 19066 57%
c f  9.70 24 260 0 12 2745 28 26930 6816 3.0 16 6 2 7 26% 17627 91155 19147 57%
c u  9.77 24 260 0 12 2745 28 26930 6470 3.0 16 6 2 7 26% 17633 91155 19147 57%
c v  9.82 24 260 0 12 2745 28 26930 6255 3.0 16 6 2 7 26% 17633 91155 19147 57%
c
c  seconds   switched     rate        size/glue tier1    binary          remaining
c         MB   reductions   conflicts       size  tier2      irredundant
c           level   restarts     redundant    glue   trail          variables
c
c w  9.83 24 260 0 12 2745 28 26930 6253 3.0 16 6 2 7 26% 17633 91155 19147 57%
c x  9.89 24 260 0 12 2745 28 26930 6250 3.0 16 6 2 7 26% 17677 88867 19147 57%
c = 10.06 24 260 0 12 2745 28 26930 6250 3.0 16 6 2 7 26% 20545 88863 17713 53%
c d 10.07 24 260 0 12 2745 28 26930 6134 3.0 16 6 2 7 26% 17643 88863 17712 53%
c t 10.09 24 260 0 12 2745 28 26930 6134 3.0 16 6 2 7 26% 17312 88863 17712 53%
c f 10.14 24 260 0 12 2745 28 26930 6134 3.0 16 6 2 7 26% 17203 88190 17811 53%
c - 10.63 24 256 0 13 3032 28 30254 7968 3.0 16 6 2 7 26% 17280 88188 17811 53%
c - 11.15 24 254 0 14 3250 27 33861 9920 2.9 16 6 2 7 25% 17371 88185 17811 53%
c - 11.96 24 249 0 15 3603 27 37602 11512 3.0 17 6 2 6 26% 17467 88182 17811 53%
c o 12.71 24 245 0 15 3896 27 40091 13747 3.1 17 6 2 6 26% 17525 88182 17811 53%
c d 12.91 24 244 0 15 4009 27 41258 14698 3.0 17 6 2 6 26% 17471 88182 17772 53%
c u 13.00 24 244 0 15 4009 27 41258 12503 3.0 17 6 2 6 26% 17490 88182 17772 53%
c v 13.08 24 244 0 15 4009 27 41258 11450 3.0 17 6 2 6 26% 17494 88182 17772 53%
c w 13.13 24 244 0 15 4009 27 41258 11450 3.0 17 6 2 6 26% 17494 88182 17772 53%
c x 13.21 24 244 0 15 4009 27 41258 11446 3.0 17 6 2 6 26% 17494 84105 17772 53%
c = 13.51 24 244 0 15 4009 27 41258 11446 3.0 17 6 2 6 26% 19098 84105 16970 51%
c d 13.52 24 244 0 15 4009 27 41258 11113 3.0 17 6 2 6 26% 17415 84105 16969 51%
c t 13.55 24 244 0 15 4009 27 41258 11113 3.0 17 6 2 6 26% 17100 84105 16969 51%
c f 13.59 24 244 0 15 4009 27 41258 11113 3.0 17 6 2 6 26% 17133 83742 17024 51%
c u 13.67 24 244 0 15 4009 27 41258 10522 3.0 17 6 2 6 26% 17141 83742 17024 51%
c
c  seconds   switched     rate        size/glue tier1    binary          remaining
c         MB   reductions   conflicts       size  tier2      irredundant
c           level   restarts     redundant    glue   trail          variables
c
c v 13.75 24 244 0 15 4009 27 41258 9834 3.0 17 6 2 6 26% 17142 83742 17024 51%
c w 13.82 24 244 0 15 4009 27 41258 9831 3.0 17 6 2 6 26% 17142 83742 17024 51%
c x 13.91 24 244 0 15 4009 27 41258 9830 3.0 17 6 2 6 26% 17143 76932 17024 51%
c = 14.17 24 244 0 15 4009 27 41258 9830 3.0 17 6 2 6 26% 17273 76932 16959 51%
c d 14.19 24 244 0 15 4009 27 41258 9706 3.0 17 6 2 6 26% 17132 76932 16958 51%
c t 14.21 24 244 0 15 4009 27 41258 9706 3.0 17 6 2 6 26% 17104 76932 16958 51%
c f 14.23 24 244 0 15 4009 27 41258 9706 3.0 17 6 2 6 26% 17115 76878 16966 51%
c - 14.28 24 243 0 16 4013 27 41475 8688 3.0 17 6 2 6 26% 17120 76878 16966 51%
c - 15.08 24 235 0 17 4363 27 45476 10851 3.0 17 6 2 6 25% 17189 76878 16966 51%
c - 15.91 24 231 0 18 4765 26 49601 13011 3.0 18 6 2 6 26% 17275 76878 16966 51%
c s 16.55 24 228 0 18 5008 26 52136 15220 3.0 17 6 2 6 26% 17325 73254 16966 51%
c e 16.67 24 228 0 18 5008 26 52136 15220 3.0 17 6 2 6 26% 15522 76419 15938 48%
c 2 16.67 24 228 0 18 5008 26 52136 15220 3.0 17 6 2 6 26% 15514 76419 15938 48%
c s 16.68 24 228 0 18 5008 26 52136 15220 3.0 17 6 2 6 26% 15530 75919 15938 48%
c e 16.70 24 228 0 18 5008 26 52136 15220 3.0 17 6 2 6 26% 15486 75986 15917 48%
c ^ 16.70 24 228 0 18 5008 26 52136 15220 3.0 17 6 2 6 26% 15486 75986 15917 48%
c - 17.07 23 226 0 19 5171 26 53843 13549 3.0 18 6 2 6 26% 15519 75986 15917 48%
c - 17.85 23 221 0 20 5533 26 58203 15328 2.9 18 6 2 6 26% 15614 75985 15917 48%
c c 17.98 23 221 0 20 5563 26 58888 15906 2.9 17 6 2 6 26% 15710 75637 15841 48%
c d 17.99 23 221 0 20 5563 26 58888 15590 2.9 17 6 2 6 26% 15558 75637 15841 48%
c
c  seconds   switched     rate         size/glue tier1    binary          remaining
c         MB   reductions   conflicts        size  tier2      irredundant
c           level   restarts      redundant    glue   trail          variables
c
c u 18.08 23 221 0 20 5563 26 58888 12938 2.9 17 6 2 6 26% 15527 75637 15841 48%
c v 18.16 23 221 0 20 5563 26 58888 11646 2.9 17 6 2 6 26% 15530 75637 15841 48%
c w 18.19 23 221 0 20 5563 26 58888 11609 2.9 17 6 2 6 26% 15530 75637 15841 48%
c x 18.28 23 221 0 20 5563 26 58888 11607 2.9 17 6 2 6 26% 15537 75407 15841 48%
c = 18.59 23 221 0 20 5563 26 58888 11607 2.9 17 6 2 6 26% 15835 75407 15692 47%
c d 18.60 23 221 0 20 5563 26 58888 11355 2.9 17 6 2 6 26% 15510 75407 15691 47%
c t 18.63 23 221 0 20 5563 26 58888 11355 2.9 17 6 2 6 26% 15396 75407 15691 47%
c f 18.69 23 221 0 20 5563 26 58888 11355 2.9 17 6 2 6 26% 15461 75122 15730 47%
c b 18.72 23 221 0 20 5563 26 58888 11355 2.9 17 6 2 6 26% 15461 75122 15729 47%
c u 18.78 23 221 0 20 5563 26 58888 10633 2.9 17 6 2 6 26% 15468 75122 15729 47%
c v 18.84 23 221 0 20 5563 26 58888 10174 2.9 17 6 2 6 26% 15469 75122 15729 47%
c w 18.87 23 221 0 20 5563 26 58888 10151 2.9 17 6 2 6 26% 15469 75122 15729 47%
c x 18.98 23 221 0 20 5563 26 58888 10147 2.9 17 6 2 6 26% 15474 74915 15729 47%
c = 19.30 23 221 0 20 5563 26 58888 10147 2.9 17 6 2 6 26% 15950 74915 15491 47%
c d 19.31 23 221 0 20 5563 26 58888 9986 2.9 17 6 2 6 26% 15451 74915 15491 47%
c t 19.34 23 221 0 20 5563 26 58888 9986 2.9 17 6 2 6 26% 15377 74915 15491 47%
c f 19.37 23 221 0 20 5563 26 58888 9986 2.9 17 6 2 6 26% 15410 74770 15510 47%
c - 20.24 23 214 0 21 5949 25 62675 11960 2.9 17 6 2 6 26% 15462 74769 15510 47%
c - 21.25 23 207 0 22 6408 25 67258 14397 2.9 17 6 2 6 26% 15523 74767 15510 47%
c o 22.25 23 205 0 22 6886 25 70094 17055 2.9 18 6 2 6 27% 15550 74766 15510 47%
c
c  seconds   switched     rate         size/glue tier1    binary          remaining
c         MB   reductions   conflicts        size  tier2      irredundant
c           level   restarts      redundant    glue   trail          variables
c
c - 22.75 23 203 0 23 7094 25 71948 16492 2.9 18 6 2 6 27% 15569 74766 15510 47%
c - 23.71 23 199 0 24 7516 25 76743 18225 2.9 18 6 2 6 27% 15630 74765 15510 47%
c c 24.52 23 195 0 24 7830 25 79946 21152 2.9 18 6 2 6 27% 15689 74722 15501 47%
c d 24.53 23 195 0 24 7830 25 79946 21115 2.9 18 6 2 6 27% 15671 74722 15501 47%
c u 24.66 23 195 0 24 7830 25 79946 17875 2.9 18 6 2 6 27% 15694 74722 15501 47%
c v 24.79 23 195 0 24 7830 25 79946 16472 2.9 18 6 2 6 27% 15694 74722 15501 47%
c w 24.87 23 195 0 24 7830 25 79946 16467 2.9 18 6 2 6 27% 15694 74722 15501 47%
c x 25.00 23 195 0 24 7830 25 79946 16449 2.9 18 6 2 6 27% 15881 72126 15501 47%
c = 25.28 23 195 0 24 7830 25 79946 16449 2.9 18 6 2 6 27% 16233 72126 15325 46%
c d 25.29 23 195 0 24 7830 25 79946 16318 2.9 18 6 2 6 27% 15863 72126 15322 46%
c t 25.32 23 195 0 24 7830 25 79946 16318 2.9 18 6 2 6 27% 15742 72126 15322 46%
c f 25.35 23 195 0 24 7830 25 79946 16318 2.9 18 6 2 6 27% 15764 72011 15337 46%
c u 25.48 23 195 0 24 7830 25 79946 15353 2.9 18 6 2 6 27% 15775 72011 15337 46%
c v 25.60 23 195 0 24 7830 25 79946 14293 2.9 18 6 2 6 27% 15776 72011 15337 46%
c w 25.72 23 195 0 24 7830 25 79946 14281 2.9 18 6 2 6 27% 15776 72011 15337 46%
c x 25.85 23 195 0 24 7830 25 79946 14273 2.9 18 6 2 6 27% 15901 70987 15337 46%
c = 26.39 23 195 0 24 7830 25 79946 14273 2.9 18 6 2 6 27% 16143 70977 15216 46%
c d 26.40 23 195 0 24 7830 25 79946 14203 2.9 18 6 2 6 27% 15872 70977 15216 46%
c t 26.43 23 195 0 24 7830 25 79946 14203 2.9 18 6 2 6 27% 15796 70977 15216 46%
c f 26.46 23 195 0 24 7830 25 79946 14203 2.9 18 6 2 6 27% 15809 70916 15224 46%
c
c  seconds   switched     rate         size/glue tier1    binary          remaining
c         MB   reductions   conflicts        size  tier2      irredundant
c           level   restarts      redundant    glue   trail          variables
c
c - 26.88 23 194 0 25 8008 25 81642 13963 2.9 18 6 2 5 27% 15831 70912 15224 46%
c - 28.09 23 189 0 26 8538 25 86643 16660 2.9 18 6 2 5 27% 15879 70911 15224 46%
c - 29.41 23 185 0 27 9070 24 91742 19143 2.9 18 6 2 5 28% 15935 70911 15224 46%
c s 30.59 23 182 0 27 9573 24 95797 22894 2.9 19 6 2 5 28% 15961 70062 15224 46%
c e 30.76 23 182 0 27 9573 24 95797 22894 2.9 19 6 2 5 28% 12481 80327 13172 40%
c 2 30.76 23 182 0 27 9573 24 95797 22894 2.9 19 6 2 5 28% 12479 80327 13172 40%
c s 30.80 23 182 0 27 9573 24 95797 22894 2.9 19 6 2 5 28% 12525 79088 13172 40%
c e 30.83 23 182 0 27 9573 24 95797 22894 2.9 19 6 2 5 28% 12468 79215 13142 39%
c ^ 30.83 23 182 0 27 9573 24 95797 22894 2.9 19 6 2 5 28% 12468 79215 13142 39%
c - 31.12 23 181 0 28 9691 24 96938 15669 2.9 19 6 2 5 28% 12473 79215 13142 39%
c - 32.61 23 178 0 29 10302 24 102229 18510 2.9 19 6 2 5 28% 12504 79215 13142 39%
c d 33.24 23 177 0 29 10517 24 104564 20634 2.9 19 7 2 5 28% 12528 79213 13141 39%
c u 33.39 23 177 0 29 10517 24 104564 17538 2.9 19 7 2 5 28% 12558 79213 13141 39%
c v 33.51 23 177 0 29 10517 24 104564 15693 2.9 19 7 2 5 28% 12561 79213 13141 39%
c w 33.68 23 177 0 29 10517 24 104564 15675 2.9 19 7 2 5 28% 12561 79213 13141 39%
c x 33.82 23 177 0 29 10517 24 104564 15670 2.9 19 7 2 5 28% 12583 79068 13141 39%
c = 34.46 23 177 0 29 10517 24 104564 15670 2.9 19 7 2 5 28% 12711 79004 13070 39%
c d 34.47 23 177 0 29 10517 24 104564 15610 2.9 19 7 2 5 28% 12573 79004 13070 39%
c t 34.50 23 177 0 29 10517 24 104564 15610 2.9 19 7 2 5 28% 12482 79004 13070 39%
c f 34.64 23 177 0 29 10517 24 104564 15610 2.9 19 7 2 5 28% 12490 78941 13076 39%
c
c  seconds   switched      rate          size/glue tier1    binary          remaining
c         MB   reductions    conflicts         size  tier2      irredundant
c           level   restarts        redundant    glue   trail          variables
c
c u 34.81 23 177 0 29 10517 24 104564 14849 2.9 19 7 2 5 28% 12498 78941 13076 39%
c v 34.89 23 177 0 29 10517 24 104564 14487 2.9 19 7 2 5 28% 12498 78941 13076 39%
c w 35.19 23 177 0 29 10517 24 104564 14223 2.9 19 7 2 5 28% 12499 78941 13076 39%
c = 35.83 23 177 0 29 10517 24 104564 14223 2.9 19 7 2 5 28% 12505 78937 13073 39%
c d 35.84 23 177 0 29 10517 24 104564 14221 2.9 19 7 2 5 28% 12496 78937 13073 39%
c t 35.86 23 177 0 29 10517 24 104564 14221 2.9 19 7 2 5 28% 12495 78937 13073 39%
c - 36.51 23 174 0 30 10740 24 107616 15328 2.9 19 7 2 5 29% 12511 78936 13073 39%
c o 37.03 23 173 0 30 10911 24 110146 17653 2.9 19 7 2 5 29% 12551 78934 13073 39%
c - 37.61 23 173 0 31 11159 24 113093 18187 2.9 19 7 2 5 29% 12581 78934 13073 39%
c i 38.17 23 171 0 31 11492 23 116815 21551 2.9 19 7 2 5 29% 12611 78934 13072 39%
c i 38.17 23 172 0 31 11492 23 116900 21591 2.9 19 7 2 5 29% 12621 78934 13069 39%
c - 38.43 23 172 0 32 11621 23 118661 20390 2.9 19 7 2 5 29% 12615 78934 13068 39%
c i 38.50 23 171 0 32 11670 23 119162 20855 2.9 19 7 2 5 29% 12616 78934 13067 39%
c - 39.36 23 170 0 33 12197 23 124318 22492 2.9 19 7 2 5 29% 12639 78933 13067 39%
c i 39.54 23 169 0 33 12315 23 125487 23554 2.9 19 7 2 5 29% 12646 78933 13066 39%
c i 39.83 23 167 0 33 12452 23 127816 25684 2.8 19 7 2 5 29% 12664 78933 13065 39%
c - 40.19 23 166 0 34 12654 23 130063 24446 2.8 19 7 2 5 29% 12672 78933 13065 39%
c b 40.60 23 165 0 34 12820 22 132797 26957 2.8 19 7 2 5 29% 12714 78875 13063 39%
c u 40.72 23 165 0 34 12820 22 132797 23896 2.8 19 7 2 5 29% 12752 78875 13062 39%
c v 40.81 23 165 0 34 12820 22 132797 22247 2.8 19 7 2 5 29% 12748 78875 13062 39%
c
c  seconds   switched      rate          size/glue tier1    binary          remaining
c         MB   reductions    conflicts         size  tier2      irredundant
c           level   restarts        redundant    glue   trail          variables
c
c w 40.86 23 165 0 34 12820 22 132797 22238 2.8 19 7 2 5 29% 12748 78875 13062 39%
c x 40.95 24 165 0 34 12820 22 132797 22223 2.8 19 7 2 5 29% 12769 78162 13061 39%
c = 41.42 24 165 0 34 12820 22 132797 22223 2.8 19 7 2 5 29% 12851 78045 13007 39%
c d 41.42 24 165 0 34 12820 22 132797 21959 2.8 19 7 2 5 29% 12743 78044 13007 39%
c t 41.44 24 165 0 34 12820 22 132797 21959 2.8 19 7 2 5 29% 12696 78044 13007 39%
c u 41.56 24 165 0 34 12820 22 132797 20137 2.8 19 7 2 5 29% 12710 78044 13007 39%
c v 41.63 24 165 0 34 12820 22 132797 18980 2.8 19 7 2 5 29% 12710 78044 13007 39%
c w 41.70 24 165 0 34 12820 22 132797 18912 2.8 19 7 2 5 29% 12710 78044 13007 39%
c x 41.80 24 165 0 34 12820 22 132797 18898 2.8 19 7 2 5 29% 12787 76707 13007 39%
c t 42.27 24 165 0 34 12820 22 132797 18898 2.8 19 7 2 5 29% 12769 76707 13007 39%
c i 42.29 24 165 0 34 12820 22 132797 18898 2.8 19 7 2 5 29% 12769 76707 13007 39%
c i 42.39 24 164 0 34 12880 22 133718 19751 2.8 19 7 2 5 29% 12773 76707 13006 39%
c i 42.39 24 164 0 34 12880 22 133730 19760 2.8 19 7 2 5 29% 12774 76707 13005 39%
c - 42.68 24 163 0 35 13031 22 135894 17385 2.8 19 7 1 5 29% 12753 76706 13005 39%
c i 42.78 24 162 0 35 13088 22 136861 18258 2.8 19 7 1 5 29% 12760 76706 13004 39%
c i 42.87 24 161 0 35 13138 22 137773 19092 2.8 19 7 1 5 29% 12774 76706 13003 39%
c i 42.90 24 160 0 35 13147 22 138527 19781 2.8 19 7 1 5 29% 12783 76706 13002 39%
c i 42.94 24 159 0 35 13168 22 138763 20004 2.8 19 7 1 5 29% 12786 76706 13001 39%
c i 42.95 24 159 0 35 13170 22 138973 20191 2.8 19 7 1 5 29% 12790 76706 13000 39%
c i 43.02 24 159 0 35 13214 22 139598 20757 2.8 19 7 1 5 29% 12796 76706 12999 39%
c
c  seconds   switched      rate          size/glue tier1    binary          remaining
c         MB   reductions    conflicts         size  tier2      irredundant
c           level   restarts        redundant    glue   trail          variables
c
c i 43.04 24 159 0 35 13221 22 139746 20897 2.8 19 7 1 5 29% 12797 76706 12998 39%
c i 43.22 24 157 0 35 13387 21 141787 22744 2.8 19 7 1 5 29% 12814 76705 12997 39%
c - 43.23 24 157 0 36 13387 21 141810 18603 2.8 19 7 1 5 29% 12783 76705 12997 39%
c i 43.26 24 156 0 36 13416 21 142432 19122 2.8 19 7 1 5 29% 12791 76704 12996 39%
c i 43.27 24 156 0 36 13431 21 142579 19224 2.8 19 7 1 5 29% 12796 76704 12995 39%
c i 43.32 24 155 0 36 13455 21 143468 20034 2.7 19 7 1 5 28% 12803 76704 12993 39%
c i 43.33 24 155 0 36 13472 21 143733 20269 2.7 19 7 1 5 28% 12806 76703 12991 39%
c i 43.42 24 151 0 36 13598 20 146370 22543 2.7 18 7 1 5 28% 12846 76702 12986 39%
c i 43.42 24 151 0 36 13598 20 146384 22550 2.7 18 7 1 5 28% 12848 76702 12985 39%
c i 43.42 24 151 0 36 13598 20 146403 22557 2.7 18 7 1 5 28% 12851 76702 12980 39%
c i 43.42 24 151 0 36 13598 20 146406 22558 2.7 18 7 1 5 28% 12852 76702 12978 39%
c i 43.42 24 151 0 36 13598 20 146412 22559 2.7 18 7 1 5 28% 12855 76702 12976 39%
c i 43.42 24 151 0 36 13598 20 146416 22559 2.7 18 7 1 5 28% 12856 76702 12975 39%
c } 43.42 24 151 0 36 13598 20 146418 22559 2.7 18 7 1 5 28% 12856 76702 12942 39%
c 0 43.42 24 151 0 36 13598 20 146418 22559 2.7 18 7 1 5 28% 12856 76702 12942 39%
c
c ---- [ result ] ------------------------------------------------------------
c
s UNSATISFIABLE
c
c ---- [ profiling ] ---------------------------------------------------------
c
c          29.23   67.31 %  search
c          29.23   67.31 %  focused
c          13.55   31.21 %  simplify
c          13.02   29.98 %  probe
c           5.46   12.59 %  sweep
c           4.92   11.33 %  vivify
c           1.00    2.30 %  factor
c           0.89    2.04 %  eliminate
c           0.72    1.67 %  substitute
c           0.60    1.37 %  congruence
c           0.58    1.34 %  preprocess
c           0.25    0.58 %  reduce
c           0.22    0.50 %  fastel
c           0.20    0.46 %  transitive
c           0.18    0.41 %  subsume
c           0.12    0.27 %  backbone
c           0.04    0.09 %  lucky
c           0.02    0.06 %  parse
c =============================================
c          43.42  100.00 %  total
c
c ---- [ statistics ] --------------------------------------------------------
c
c chronological:                         5687                4 %  conflicts
c conflicts:                           146418             3371.89 per second
c congruent:                             2743                8 %  variables
c decisions:                          3143984               21.47 per conflict
c eliminated:                           14997               45 %  variables
c factored:                              3782               11 %  variables
c fast_eliminated:                       8781               59 %  eliminated
c fast_strengthened:                      200                8 %  per strengthened
c fast_subsumed:                          241                1 %  per subsumed
c iterations:                              26                0 %  variables
c propagations:                     143546312          3305758    per second
c reductions:                              36             4067    interval
c reordered:                                5            29284    interval
c restarts:                             13598               11    interval
c strengthened:                          2400                0 %  checks
c substituted:                           9054               27 %  variables
c subsumed:                             17345                1 %  checks
c switched:                                 0                0    interval
c vivified:                             79847               16 %  checks
c
c ---- [ glue usage ] --------------------------------------------------------
c
c focused glue 1 used 172426 clauses 50.18% accumulated 50.18% tier1
c focused glue 2 used  79291 clauses 23.07% accumulated 73.25%
c focused glue 3 used  36685 clauses 10.68% accumulated 83.93%
c focused glue 4 used  16118 clauses  4.69% accumulated 88.62%
c focused glue 5 used  10072 clauses  2.93% accumulated 91.55% tier2
c
c ---- [ resources ] ---------------------------------------------------------
c
c maximum-resident-set-size:         26406912 bytes         25 MB
c process-time:                            43s              43.42 seconds
c
c ---- [ shutting down ] -----------------------------------------------------
c
c exit 20
